solutions/ilp/ID007_C2_2x2_2x4_R06.sol
Total routing cost: 866

Vehicle 1 (2 x 2): 
                  09 05 
                  08 11 

Pickup  : 00 --> 08 --> 11 --> 05 --> 09 --> 00
Delivery: 00 --> 05 --> 09 --> 11 --> 08 --> 00


Vehicle 2 (2 x 4): 
                  04 12 
                  02 01 
                  06 07 
                  03 10 

Pickup  : 00 --> 03 --> 06 --> 10 --> 07 --> 01 --> 12 --> 02 --> 04 --> 00
Delivery: 00 --> 12 --> 04 --> 02 --> 06 --> 03 --> 01 --> 07 --> 10 --> 00


