solutions/ilp/ID007_C2_2x2_2x4_R06.log
Mon Jul  9 23:03:34 2018

Tried aggregator 2 times.
MIP Presolve eliminated 2252 rows and 73 columns.
Aggregator did 144 substitutions.
Reduced MIP has 2068 rows, 820 columns, and 7808 nonzeros.
Reduced MIP has 820 binaries, 0 generals, 0 SOSs, and 0 indicators.
Presolve time = 0.02 sec. (10.78 ticks)
Probing time = 0.00 sec. (0.77 ticks)
Tried aggregator 1 time.
Presolve time = 0.01 sec. (3.58 ticks)
Probing time = 0.00 sec. (0.77 ticks)
Clique table members: 5047.
MIP emphasis: balance optimality and feasibility.
MIP search method: dynamic search.
Parallel mode: deterministic, using up to 32 threads.
Root relaxation solution time = 0.02 sec. (11.81 ticks)

        Nodes                                         Cuts/
   Node  Left     Objective  IInf  Best Integer    Best Bound    ItCnt     Gap

      0     0      525.0000   113                    525.0000      334         
      0     0      632.3056   180                    Cuts: 51      623         
      0     0      651.0000   160                    Cuts: 82      785         
      0     0      657.0000   130                    Cuts: 55      848         
      0     0      668.2308   189                    Cuts: 50     1013         
      0     0      670.1111   191                    Cuts: 23     1111         
      0     0      671.0000   168                    Cuts: 27     1248         
      0     0      671.0000   188                    Cuts: 43     1363         
      0     0      671.0000   150                 ZeroHalf: 6     1407         
      0     0      671.0000   187                    Cuts: 81     1496         
*     0+    0                         1367.0000      671.0000     1496   50.91%
Found incumbent of value 1367.000000 after 0.78 sec. (450.71 ticks)
*     0+    0                          971.0000      671.0000     1496   30.90%
Found incumbent of value 971.000000 after 1.18 sec. (532.67 ticks)
      0     2      671.0000   166      971.0000      671.0000     1496   30.90%
Elapsed time = 1.21 sec. (536.76 ticks, tree = 0.01 MB, solutions = 2)
     63    61      852.0000    93      971.0000      671.4211     9967   30.85%
                                                     Cuts: 11                  
*   608+  449                          968.0000      671.4211    45128   30.64%
                                                     Cuts: 12                  
Found incumbent of value 968.000000 after 2.26 sec. (841.90 ticks)
*  1019   704      integral     0      940.0000      676.0000    68072   28.09%
                                                     Cuts: 10                  
Found incumbent of value 940.000000 after 2.66 sec. (894.01 ticks)
*  1573  1072      integral     0      879.0000      676.0000    92938   23.09%
Found incumbent of value 879.000000 after 2.73 sec. (952.38 ticks)
   3102  1321      827.0000   120      879.0000      676.6182   180621   23.02%
                                                     Cuts: 12                  
   5010  2300      786.0000   178      879.0000      713.0000   303399   18.89%
                                                     Cuts: 10                  
   7850  3729      838.2308   173      879.0000      735.0938   455695   16.37%
                                                     Cuts: 22                  
   8906  4164      835.3592   169      879.0000      735.0938   521621   16.37%
* 10133  4571      integral     0      873.0000      735.0938   588808   15.80%
Found incumbent of value 873.000000 after 5.88 sec. (1976.69 ticks)
  11126  4646      671.9538   183      873.0000      790.0000   631920    9.51%
  11704  2684      845.1061   177      873.0000      790.0000   672450    9.51%
                                                     Cuts: 16                  
Elapsed time = 11.38 sec. (4384.77 ticks, tree = 2.28 MB, solutions = 8)
  17026  2752      864.0556   159      873.0000      790.0000  1014946    9.51%
                                                     Cuts: 15                  
* 20604  2989      integral     0      866.0000      807.7500  1206681    6.73%
                                                      Cuts: 4                  
Found incumbent of value 866.000000 after 15.62 sec. (5797.16 ticks)
  31909   169        cutoff            866.0000      849.0068  1498174    1.96%

Clique cuts applied:  3
Cover cuts applied:  5
Zero-half cuts applied:  71
Gomory fractional cuts applied:  9

Root node processing (before b&c):
  Real time             =    1.12 sec. (494.70 ticks)
Parallel b&c, 32 threads:
  Real time             =   16.22 sec. (6245.92 ticks)
  Sync time (average)   =    0.11 sec.
  Wait time (average)   =    0.00 sec.
                          ------------
Total (root+branch&cut) =   17.34 sec. (6740.62 ticks)


Solution status: Optimal
Execution time: 17.5 sec
Gap: 0.00000
